199 198 197 196 195 194 193 192 191 190 189 188 187 186 185 184 183 182 181 180 179 178 177 176 175 174 173 172 171 170 169 168 167 166 165 164 163 162 159 160 157 156 154 161 158 152 155 153 151 150 149 148 146 147 145 144 143 142 141 140 139 138 136 135 134 133 132 131 130 129 128 127 116 126 124 123 122 125 120 119 106 99 78 48 47 6 83 36 59 137 84 101 39 71 27 72 2 94 92 41 13 15 42 25 82 56 64 81 67 58 28 107 18 19 26 61 77 4 38 111 68 29 1 112 43 20 117 121 14 8 34 9 54 114 105 79 23 118 22 24 40 66 73 115 10 57 60 46 55 31 70 85 86 90 110 89 102 35 63 80 91 75 37 16 49 113 44 21 51 33 76 45 0 109 88 69 17 74 65 50 7 93 5 62 87 108 103 96 3 30 95 11 53 100 52 97 32 98 104 12 

